14789.78,47.09,53.49
15858.49,43.91,49.89
13404.19,51.95,59.02
13056.87,53.34,60.59
14855.82,46.88,53.25
15869.88,43.88,49.85
15334.31,45.41,51.59
14599.5,47.7,54.19
14878.83,46.8,53.17
13585.98,51.26,58.23
13207.8,52.73,59.9
15318.48,45.46,51.64
15966.77,43.62,49.55
15684.18,44.4,50.44
13485.04,51.64,58.67
14195.07,49.06,55.73
15815.61,44.03,50.02
12313.69,56.55,64.25
19125.61,36.41,41.37
14721.77,47.3,53.74
